c 1 NFd_1
c 2 NFd_2
c 3 NFd_3
c 4 NFe_1
c 5 NFe_2
c 6 NFe_3
c 7 NFf_1
c 8 NFf_2
c 9 NFf_3
c 10 NFa_1
c 11 NFa_2
c 12 NFa_3
c 13 NFb_1
c 14 NFb_2
c 15 NFb_3
c 16 NFc_1
c 17 NFc_2
c 18 NFc_3
c 19 Tseitin_Variable_1
c 20 Tseitin_Variable_2
c 21 Tseitin_Variable_3
c 22 Tseitin_Variable_4
c 23 Tseitin_Variable_5
c 24 Tseitin_Variable_6
c 25 Tseitin_Variable_7
c 26 Tseitin_Variable_8
c 27 Tseitin_Variable_9
c 28 Tseitin_Variable_10
c 29 Tseitin_Variable_11
c 30 Tseitin_Variable_12
c 31 Tseitin_Variable_13
c 32 Tseitin_Variable_14
c 33 Tseitin_Variable_15
c 34 Tseitin_Variable_16
c 35 Tseitin_Variable_17
c 36 Tseitin_Variable_18
c 37 Tseitin_Variable_19
p cnf 37 92
21 1 0
21 -2 0
3 21 0
1 2 -3 -21 0
21 0
-6 0
-9 0
15 -18 -22 0
18 -15 -22 0
22 -15 -18 0
15 18 22 0
1 23 0
22 -12 23 0
12 1 -23 0
1 -22 -23 0
13 24 0
-22 24 0
22 -13 -24 0
15 25 0
18 25 0
-15 -18 -25 0
16 19 25 -26 0
16 -19 -25 -26 0
19 -16 -25 -26 0
-16 -19 25 -26 0
26 -16 -19 -25 0
19 -16 25 26 0
16 -19 25 26 0
16 19 -25 26 0
12 27 0
-26 27 0
-12 26 -27 0
-24 27 -28 0
24 -27 -28 0
-24 -27 28 0
24 27 28 0
-2 -28 -29 0
-2 23 -29 0
23 -28 -29 0
2 28 29 0
2 -23 29 0
-23 28 29 0
-27 30 0
-24 30 0
24 27 -30 0
13 31 0
-26 31 0
-13 26 -31 0
16 19 -32 0
16 -25 -32 0
19 -25 -32 0
32 -16 -19 0
-16 25 32 0
-19 25 32 0
17 -20 32 -33 0
17 20 -32 -33 0
-20 -32 -17 -33 0
20 32 -17 -33 0
20 -32 -17 33 0
-20 32 -17 33 0
17 20 32 33 0
17 -20 -32 33 0
12 34 0
-33 34 0
-12 33 -34 0
-31 34 -35 0
31 -34 -35 0
-31 -34 35 0
31 34 35 0
14 36 0
-22 36 0
22 -14 -36 0
-30 35 36 -37 0
30 -35 36 -37 0
30 35 -36 -37 0
-30 -35 -36 -37 0
30 -35 -36 37 0
-30 35 -36 37 0
-30 -35 36 37 0
30 35 36 37 0
3 -37 0
3 29 0
29 -37 0
-13 0
4 0
5 0
7 0
-11 0
8 0
10 0
-14 0
12 0